datasets/2-dimensional/CL_02_25_09.vbp
2
1000 1000 
25
145 414 30
671 319 72
592 563 4
132 36 88
843 959 54
618 889 64
676 715 90
575 658 26
202 275 94
780 453 28
864 416 72
344 718 49
442 250 54
712 232 19
45 221 28
661 105 61
118 106 84
304 780 23
440 18 67
83 39 53
121 399 54
776 988 16
605 30 9
496 76 54
671 19 77
