datasets/2-dimensional-benchmark/CL_02_25_09.txt
1000 1000 
0 30 145 414 
1 72 671 319 
2 4 592 563 
3 88 132 36 
4 54 843 959 
5 64 618 889 
6 90 676 715 
7 26 575 658 
8 94 202 275 
9 28 780 453 
10 72 864 416 
11 49 344 718 
12 54 442 250 
13 19 712 232 
14 28 45 221 
15 61 661 105 
16 84 118 106 
17 23 304 780 
18 67 440 18 
19 53 83 39 
20 54 121 399 
21 16 776 988 
22 9 605 30 
23 54 496 76 
24 77 671 19 
